NAME: tsp20-45
TYPE: TSP
DIMENSION: 20
EDGE_WEIGHT_TYPE: EUC_2D
NODE_COORD_SECTION
0 25 44
1 31 26
2 98 18
3 51 57
4 60 33
5 38 84
6 74 10
7 72 3
8 90 0
9 5 14
10 92 58
11 67 48
12 57 34
13 40 68
14 73 51
15 99 99
16 96 84
17 58 47
18 57 89
19 8 49
EOF